examples/dynamic/debug6/BDC_ProveIneq_ISSAC10_ex3f.smt2
(set-info :smt-lib-version 2.6)
(set-logic QF_NRA)

(set-info :license "https://creativecommons.org/licenses/by/4.0/")
(set-info :status unsat)
(set-info :category "industrial")

(declare-fun V1 () Real)
(declare-fun V2 () Real)
(assert (and (<= 0 V1) (<= 1 V2) (<= 0 V2) (<= 0 (+ 1 V2)) (<= 0 (+ 2 V2)) (<= 0 (+ 3 V2)) (<= 0 (+ 4 V2)) (<= 0 (+ 5 V2)) (<= 0 (* V1 (+ (- 17) (* V2 3)) (+ (- 16) (* V2 3)))) (<= 0 (* V1 (+ (- 17) (* V2 3)) (+ (- 14) (* V2 3)) (+ (* (* V2 V2) 9) (* V2 (- 87)) 208))) (<= 0 (* V1 (+ (- 17) (* V2 3)) (+ (- 14) (* V2 3)) (+ (- 11) (* V2 3)) (+ (* (* V2 V2 V2) 27) (* (* V2 V2) (- 351)) (* V2 1494) (- 2080)))) (<= 0 (* V1 (+ (- 17) (* V2 3)) (+ (- 14) (* V2 3)) (+ (- 11) (* V2 3)) (+ (- 8) (* V2 3)) (+ (* (* V2 V2 V2 V2) 81) (* (* V2 V2 V2) (- 1242)) (* (* V2 V2) 6939) (* V2 (- 16698)) 14560))) (<= 0 (* V1 (+ (- 17) (* V2 3)) (+ (- 14) (* V2 3)) (+ (- 11) (* V2 3)) (+ (- 8) (* V2 3)) (+ (- 5) (* V2 3)) (+ (* (* V2 V2 V2 V2 V2) 243) (* (* V2 V2 V2 V2) (- 4050)) (* (* V2 V2 V2) 25785) (* (* V2 V2) (- 77850)) (* V2 110472) (- 58240)))) (< (* V1 (+ (- 17) (* V2 3)) (+ (- 14) (* V2 3)) (+ (- 11) (* V2 3)) (+ (- 8) (* V2 3)) (+ (- 5) (* V2 3)) (+ (- 2) (* V2 3)) (+ (* (* V2 V2 V2 V2 V2 V2) 729) (* (* V2 V2 V2 V2 V2) (- 12393)) (* (* V2 V2 V2 V2) 81405) (* (* V2 V2 V2) (- 259335)) (* (* V2 V2) 409266) (* V2 (- 285192)) 58240)) 0) (not (= (+ (- 17) (* V2 3)) 0)) (not (= (* (+ (- 17) (* V2 3)) (+ (- 14) (* V2 3))) 0)) (not (= (* (+ (- 17) (* V2 3)) (+ (- 14) (* V2 3)) (+ (- 11) (* V2 3))) 0)) (not (= (* (+ (- 17) (* V2 3)) (+ (- 14) (* V2 3)) (+ (- 11) (* V2 3)) (+ (- 8) (* V2 3))) 0)) (not (= (* (+ (- 17) (* V2 3)) (+ (- 14) (* V2 3)) (+ (- 11) (* V2 3)) (+ (- 8) (* V2 3)) (+ (- 5) (* V2 3))) 0)) (not (= (* (+ (- 17) (* V2 3)) (+ (- 14) (* V2 3)) (+ (- 11) (* V2 3)) (+ (- 8) (* V2 3)) (+ (- 5) (* V2 3)) (+ (- 2) (* V2 3))) 0))))
(check-sat)
(exit)























